# 1 amount of Vehicles
param nv :=
7 ;

# 2 amount of Orders
param no :=
12 ;

# 3 amount of locations
param nl :=
9 ;

# 4 amount of factories
param nf :=
4 ;

# 5 factory sets
set N_f_2[1] :=  5 ;
set N_f_2[2] :=  6 ;
set N_f_2[3] :=  7 9 ;
set N_f_2[4] :=  8 ;

# 6 factory stop capacities
param H :=
1 1
2 1
3 1
4 1 ;

# 7 pickup locations for each order
param L_pd :=
1 2
2 3
3 1
4 4
5 1
6 3
7 1
8 3
9 3
10 2
11 2
12 3 ;

# 8 delivery locations for each order
param L_dd :=
1 7
2 8
3 6
4 9
5 5
6 9
7 7
8 9
9 6
10 8
11 5
12 7 ;

# 9 location sets
set L_2[1] :=  3 5 7 ;
set L_2[2] :=  1 10 11 ;
set L_2[3] :=  2 6 8 9 12 ;
set L_2[4] :=  4 ;
set L_2[5] :=  5 11 ;
set L_2[6] :=  3 9 ;
set L_2[7] :=  1 7 12 ;
set L_2[8] :=  2 10 ;
set L_2[9] :=  4 6 8 ;

# 10 order weights
param Q_kg_2 :=
1 1687.2350695803912
2 1876.0784815529946
3 2984.3925943034365
4 784.353013427298
5 1136.6484123643338
6 1811.1464085047453
7 1746.042764439786
8 351.9836073958019
9 641.8678520035126
10 1526.5438212692561
11 1461.471201397813
12 2676.334846782678 ;

# 11 order volumes
param Q_vol_2 :=
1 9.987862545353012
2 43.74842755899581
3 58.376187192565915
4 8.613561091101387
5 18.500571138357635
6 8.88149886831671
7 11.350457146590076
8 2.8639625934754553
9 10.770495511887512
10 26.457826626978324
11 33.7576356759558
12 18.530374751052285 ;

# 12 Locations vehicle can visit
set N_v_2[1] := 1 2 3 5 6 7 8 9 ;
set N_v_2[2] := 1 2 3 5 6 7 8 9 ;
set N_v_2[3] := 1 2 3 5 6 7 8 9 ;
set N_v_2[4] := 1 2 3 5 6 7 8 9 ;
set N_v_2[5] := 1 2 3 4 5 6 7 8 9 ;
set N_v_2[6] := 1 2 3 4 5 6 7 8 9 ;
set N_v_2[7] := 1 2 3 4 5 6 7 8 9 ;

# 13 Orders vehicles can pick up
set N_vp_2[1] := 1 2 5 6 7 8 9 11 12 ;
set N_vp_2[2] := 1 2 5 6 7 8 9 11 12 ;
set N_vp_2[3] := 1 2 3 5 6 7 8 9 10 11 12 ;
set N_vp_2[4] := 1 2 3 5 6 7 8 9 10 11 12 ;
set N_vp_2[5] := 1 2 3 4 5 6 7 8 9 10 11 12 ;
set N_vp_2[6] := 1 2 3 4 5 6 7 8 9 10 11 12 ;
set N_vp_2[7] := 1 2 3 4 5 6 7 8 9 10 11 12 ;

# 14 vehicle weight capacity
param K_kg :=
1 12000.0
2 12000.0
3 18000.0
4 18000.0
5 24000.0
6 24000.0
7 24000.0 ;

# 15 vehicle volume capacity
param K_vol :=
1 55.0
2 55.0
3 71.0
4 71.0
5 102.0
6 102.0
7 102.0 ;

# 16 amount of distance intervals
param na :=
1 2
2 2
3 2
4 2
5 2
6 2
7 2 ;

# 17 amount of weight intervals
param nb :=
1 5
2 5
3 4
4 4
5 4
6 4
7 4 ;

# 18 Distance intervals
param B_2 :=
1 1 1500.0
1 2 9999999.0
2 1 1500.0
2 2 9999999.0
3 1 1500.0
3 2 9999999.0
4 1 1500.0
4 2 9999999.0
5 1 1500.0
5 2 9999999.0
6 1 1500.0
6 2 9999999.0
7 1 1500.0
7 2 9999999.0 ;

# 19 Weight intervals
param Z_2 :=
1 1 300.0
1 2 900.0
1 3 2000.0
1 4 6000.0
1 5 24000.0
2 1 300.0
2 2 900.0
2 3 2000.0
2 4 6000.0
2 5 24000.0
3 1 500.0
3 2 1500.0
3 3 5000.0
3 4 24000.0
3 5 . 
4 1 500.0
4 2 1500.0
4 3 5000.0
4 4 24000.0
4 5 . 
5 1 500.0
5 2 1500.0
5 3 5000.0
5 4 24000.0
5 5 . 
6 1 500.0
6 2 1500.0
6 3 5000.0
6 4 24000.0
6 5 . 
7 1 500.0
7 2 1500.0
7 3 5000.0
7 4 24000.0
7 5 . ;

# 20 cost per kilometer
param C_km :=
1 1 1 0.05742187499999999
1 1 2 0.09250345230102536
1 1 3 0.13176321828737853
1 1 4 0.21300801182522439
1 1 5 0.3723393221028571
1 2 1 0.03828125
1 2 2 0.061668968200683606
1 2 3 0.08784214552491905
1 2 4 0.14200534121681632
1 2 5 0.2482262147352381
2 1 1 0.05742187499999999
2 1 2 0.09250345230102536
2 1 3 0.13176321828737853
2 1 4 0.21300801182522439
2 1 5 0.3723393221028571
2 2 1 0.03828125
2 2 2 0.061668968200683606
2 2 3 0.08784214552491905
2 2 4 0.14200534121681632
2 2 5 0.2482262147352381
3 1 1 0.08290283203125001
3 1 2 0.13503576880693438
3 1 3 0.22939324350408793
3 1 4 0.43439587578666683
3 1 5 . 
3 2 1 0.05211035156249999
3 2 2 0.08487962610721587
3 2 3 0.14419003877399808
3 2 4 0.2730488362087619
3 2 5 . 
4 1 1 0.08290283203125001
4 1 2 0.13503576880693438
4 1 3 0.22939324350408793
4 1 4 0.43439587578666683
4 1 5 . 
4 2 1 0.05211035156249999
4 2 2 0.08487962610721587
4 2 3 0.14419003877399808
4 2 4 0.2730488362087619
4 2 5 . 
5 1 1 0.09474609375000001
5 1 2 0.1543265929222107
5 1 3 0.2621637068618147
5 1 4 0.4964524294704762
5 1 5 . 
5 2 1 0.05921630859375
5 2 2 0.09645412057638168
5 2 3 0.16385231678863418
5 2 4 0.3102827684190475
5 2 5 . 
6 1 1 0.09474609375000001
6 1 2 0.1543265929222107
6 1 3 0.2621637068618147
6 1 4 0.4964524294704762
6 1 5 . 
6 2 1 0.05921630859375
6 2 2 0.09645412057638168
6 2 3 0.16385231678863418
6 2 4 0.3102827684190475
6 2 5 . 
7 1 1 0.09474609375000001
7 1 2 0.1543265929222107
7 1 3 0.2621637068618147
7 1 4 0.4964524294704762
7 1 5 . 
7 2 1 0.05921630859375
7 2 2 0.09645412057638168
7 2 3 0.16385231678863418
7 2 4 0.3102827684190475
7 2 5 . ;

# 21 cost per kilo
param C_kg :=
1 1 1 0.011718750000000003
1 1 2 0.006136894226074222
1 1 3 0.003885101526975635
1 1 4 0.0020508327923744237
1 1 5 8.114541859150757E-4
1 2 1 0.004687500000000001
1 2 2 0.002454757690429688
1 2 3 0.001554040610790253
1 2 4 8.203331169497689E-4
1 2 5 3.245816743660299E-4
2 1 1 0.011718750000000003
2 1 2 0.006136894226074222
2 1 3 0.003885101526975635
2 1 4 0.0020508327923744237
2 1 5 8.114541859150757E-4
2 2 1 0.004687500000000001
2 2 2 0.002454757690429688
2 2 3 0.001554040610790253
2 2 4 8.203331169497689E-4
2 2 5 3.245816743660299E-4
3 1 1 0.008544921875000003
3 1 2 0.004564315080642704
3 1 3 0.0022787031026382486
3 1 4 8.114541859150757E-4
3 1 5 . 
3 2 1 0.003417968750000001
3 2 2 0.0018257260322570804
3 2 3 9.114812410552988E-4
3 2 4 3.245816743660299E-4
3 2 5 . 
4 1 1 0.008544921875000003
4 1 2 0.004564315080642704
4 1 3 0.0022787031026382486
4 1 4 8.114541859150757E-4
4 1 5 . 
4 2 1 0.003417968750000001
4 2 2 0.0018257260322570804
4 2 3 9.114812410552988E-4
4 2 4 3.245816743660299E-4
4 2 5 . 
5 1 1 0.008544921875000003
5 1 2 0.004564315080642704
5 1 3 0.0022787031026382486
5 1 4 8.114541859150757E-4
5 1 5 . 
5 2 1 0.003417968750000001
5 2 2 0.0018257260322570804
5 2 3 9.114812410552988E-4
5 2 4 3.245816743660299E-4
5 2 5 . 
6 1 1 0.008544921875000003
6 1 2 0.004564315080642704
6 1 3 0.0022787031026382486
6 1 4 8.114541859150757E-4
6 1 5 . 
6 2 1 0.003417968750000001
6 2 2 0.0018257260322570804
6 2 3 9.114812410552988E-4
6 2 4 3.245816743660299E-4
6 2 5 . 
7 1 1 0.008544921875000003
7 1 2 0.004564315080642704
7 1 3 0.0022787031026382486
7 1 4 8.114541859150757E-4
7 1 5 . 
7 2 1 0.003417968750000001
7 2 2 0.0018257260322570804
7 2 3 9.114812410552988E-4
7 2 4 3.245816743660299E-4
7 2 5 . ;

# 22 fixed costs
param C_fix :=
1 1 1 35.4375
1 1 2 101.25
1 1 3 162.0
1 1 4 329.0625
1 1 5 764.94375
1 2 1 269.103515625
1 2 2 768.8671875
1 2 3 1230.1875
1 2 4 2498.818359375
1 2 5 5808.7916015625
2 1 1 35.4375
2 1 2 101.25
2 1 3 162.0
2 1 4 329.0625
2 1 5 764.94375
2 2 1 269.103515625
2 2 2 768.8671875
2 2 3 1230.1875
2 2 4 2498.818359375
2 2 5 5808.7916015625
3 1 1 71.06890752000001
3 1 2 159.90504192000003
3 1 3 343.49971968000006
3 1 4 894.8759938560002
3 1 5 . 
3 2 1 656.6026500912208
3 2 2 1477.3559627052468
3 2 3 3173.5794754409003
3 2 4 8267.721702398621
3 2 5 . 
4 1 1 71.06890752000001
4 1 2 159.90504192000003
4 1 3 343.49971968000006
4 1 4 894.8759938560002
4 1 5 . 
4 2 1 656.6026500912208
4 2 2 1477.3559627052468
4 2 3 3173.5794754409003
4 2 4 8267.721702398621
4 2 5 . 
5 1 1 86.80737791999998
5 1 2 195.31660031999994
5 1 3 419.56899327999986
5 1 4 1093.0495669759996
5 1 5 . 
5 2 1 1029.8545177172455
5 2 2 2317.1726648638028
5 2 3 4977.630168966687
5 2 4 12967.584802256317
5 2 5 . 
6 1 1 86.80737791999998
6 1 2 195.31660031999994
6 1 3 419.56899327999986
6 1 4 1093.0495669759996
6 1 5 . 
6 2 1 1029.8545177172455
6 2 2 2317.1726648638028
6 2 3 4977.630168966687
6 2 4 12967.584802256317
6 2 5 . 
7 1 1 86.80737791999998
7 1 2 195.31660031999994
7 1 3 419.56899327999986
7 1 4 1093.0495669759996
7 1 5 . 
7 2 1 1029.8545177172455
7 2 2 2317.1726648638028
7 2 3 4977.630168966687
7 2 4 12967.584802256317
7 2 5 . ;

# 23 stopping costs
param C_stop_2 :=
1 1 26.0
1 2 22.0
1 3 20.0
1 4 30.0
1 5 29.0
1 6 26.0
1 7 26.0
1 8 20.0
1 9 27.0
2 1 26.0
2 2 22.0
2 3 20.0
2 4 30.0
2 5 29.0
2 6 26.0
2 7 26.0
2 8 20.0
2 9 27.0
3 1 39.0
3 2 33.0
3 3 30.0
3 4 45.0
3 5 43.5
3 6 39.0
3 7 39.0
3 8 30.0
3 9 40.5
4 1 39.0
4 2 33.0
4 3 30.0
4 4 45.0
4 5 43.5
4 6 39.0
4 7 39.0
4 8 30.0
4 9 40.5
5 1 52.0
5 2 44.0
5 3 40.0
5 4 60.0
5 5 58.0
5 6 52.0
5 7 52.0
5 8 40.0
5 9 54.0
6 1 52.0
6 2 44.0
6 3 40.0
6 4 60.0
6 5 58.0
6 6 52.0
6 7 52.0
6 8 40.0
6 9 54.0
7 1 52.0
7 2 44.0
7 3 40.0
7 4 60.0
7 5 58.0
7 6 52.0
7 7 52.0
7 8 40.0
7 9 54.0 ;

# 24 cost of no transport
param C_2 :=
1 78694.17152472574
2 96205.2555987566
3 114943.6613060234
4 51228.85483030658
5 80831.83686949822
6 51281.17936581352
7 88131.36418786203
8 30672.01507988283
9 74820.95448408833
10 80813.12078464858
11 97501.23541329199
12 69591.26903015321 ;

# 25 timewindow amounts at location
param pi_2 :=
1 4
2 4
3 4
4 3
5 3
6 4
7 4
8 4
9 4 ;

# 26 timewindow lower bounds
param T_l_2 :=
1 1 0.0
1 2 1440.0
1 3 2880.0
1 4 4320.0
2 1 0.0
2 2 1440.0
2 3 2880.0
2 4 4320.0
3 1 60.0
3 2 1500.0
3 3 2940.0
3 4 4380.0
4 1 60.0
4 2 420.0
4 3 1500.0
4 4 . 
5 1 60.0
5 2 1500.0
5 3 2940.0
5 4 . 
6 1 0.0
6 2 1440.0
6 3 2880.0
6 4 4320.0
7 1 120.0
7 2 1560.0
7 3 3000.0
7 4 4440.0
8 1 120.0
8 2 360.0
8 3 1560.0
8 4 1800.0
9 1 0.0
9 2 360.0
9 3 1440.0
9 4 1800.0 ;

# 27 timewindow upper bounds
param T_u_2 :=
1 1 240.0
1 2 1620.0
1 3 3060.0
1 4 4500.0
2 1 180.0
2 2 1680.0
2 3 3120.0
2 4 4560.0
3 1 240.0
3 2 1680.0
3 3 3120.0
3 4 4560.0
4 1 360.0
4 2 720.0
4 3 1800.0
4 4 . 
5 1 300.0
5 2 1680.0
5 3 3120.0
5 4 . 
6 1 300.0
6 2 1740.0
6 3 3180.0
6 4 4620.0
7 1 420.0
7 2 1800.0
7 3 3240.0
7 4 4680.0
8 1 300.0
8 2 540.0
8 3 1740.0
8 4 1980.0
9 1 300.0
9 2 600.0
9 3 1740.0
9 4 2040.0 ;

# 28 Travel time
param T_2 :=
1 1 1 . 
1 1 2 135.71985641631537
1 1 3 697.5296275152675
1 1 4 . 
1 1 5 586.0796934582875
1 1 6 149.05913617371857
1 1 7 795.3413232812347
1 1 8 565.3036702338546
1 1 9 813.8454016025462
1 2 1 135.71985641631537
1 2 2 . 
1 2 3 683.8609308718775
1 2 4 . 
1 2 5 602.4814620559677
1 2 6 179.81458028933397
1 2 7 694.5659713928136
1 2 8 391.16426574962816
1 2 9 691.0665052613681
1 3 1 697.5296275152675
1 3 2 683.8609308718775
1 3 3 . 
1 3 4 . 
1 3 5 752.1606597415314
1 3 6 818.1963408694281
1 3 7 71.62576352123585
1 3 8 256.26738707051425
1 3 9 99.47027354082255
1 4 1 . 
1 4 2 . 
1 4 3 . 
1 4 4 . 
1 4 5 . 
1 4 6 . 
1 4 7 . 
1 4 8 . 
1 4 9 . 
1 5 1 586.0796934582875
1 5 2 602.4814620559677
1 5 3 752.1606597415314
1 5 4 . 
1 5 5 . 
1 5 6 510.60964517367665
1 5 7 694.7955021129983
1 5 8 535.7859794743047
1 5 9 636.5300670184039
1 6 1 149.05913617371857
1 6 2 179.81458028933397
1 6 3 818.1963408694281
1 6 4 . 
1 6 5 510.60964517367665
1 6 6 . 
1 6 7 808.7499499799899
1 6 8 508.987932988103
1 6 9 657.2717757515552
1 7 1 795.3413232812347
1 7 2 694.5659713928136
1 7 3 71.62576352123585
1 7 4 . 
1 7 5 694.7955021129983
1 7 6 808.7499499799899
1 7 7 . 
1 7 8 234.9779400754745
1 7 9 0.5
1 8 1 565.3036702338546
1 8 2 391.16426574962816
1 8 3 256.26738707051425
1 8 4 . 
1 8 5 535.7859794743047
1 8 6 508.987932988103
1 8 7 234.9779400754745
1 8 8 . 
1 8 9 306.49489790015554
1 9 1 813.8454016025462
1 9 2 691.0665052613681
1 9 3 99.47027354082255
1 9 4 . 
1 9 5 636.5300670184039
1 9 6 657.2717757515552
1 9 7 0.5
1 9 8 306.49489790015554
1 9 9 . 
2 1 1 . 
2 1 2 135.71985641631537
2 1 3 697.5296275152675
2 1 4 . 
2 1 5 586.0796934582875
2 1 6 149.05913617371857
2 1 7 795.3413232812347
2 1 8 565.3036702338546
2 1 9 813.8454016025462
2 2 1 135.71985641631537
2 2 2 . 
2 2 3 683.8609308718775
2 2 4 . 
2 2 5 602.4814620559677
2 2 6 179.81458028933397
2 2 7 694.5659713928136
2 2 8 391.16426574962816
2 2 9 691.0665052613681
2 3 1 697.5296275152675
2 3 2 683.8609308718775
2 3 3 . 
2 3 4 . 
2 3 5 752.1606597415314
2 3 6 818.1963408694281
2 3 7 71.62576352123585
2 3 8 256.26738707051425
2 3 9 99.47027354082255
2 4 1 . 
2 4 2 . 
2 4 3 . 
2 4 4 . 
2 4 5 . 
2 4 6 . 
2 4 7 . 
2 4 8 . 
2 4 9 . 
2 5 1 586.0796934582875
2 5 2 602.4814620559677
2 5 3 752.1606597415314
2 5 4 . 
2 5 5 . 
2 5 6 510.60964517367665
2 5 7 694.7955021129983
2 5 8 535.7859794743047
2 5 9 636.5300670184039
2 6 1 149.05913617371857
2 6 2 179.81458028933397
2 6 3 818.1963408694281
2 6 4 . 
2 6 5 510.60964517367665
2 6 6 . 
2 6 7 808.7499499799899
2 6 8 508.987932988103
2 6 9 657.2717757515552
2 7 1 795.3413232812347
2 7 2 694.5659713928136
2 7 3 71.62576352123585
2 7 4 . 
2 7 5 694.7955021129983
2 7 6 808.7499499799899
2 7 7 . 
2 7 8 234.9779400754745
2 7 9 0.5
2 8 1 565.3036702338546
2 8 2 391.16426574962816
2 8 3 256.26738707051425
2 8 4 . 
2 8 5 535.7859794743047
2 8 6 508.987932988103
2 8 7 234.9779400754745
2 8 8 . 
2 8 9 306.49489790015554
2 9 1 813.8454016025462
2 9 2 691.0665052613681
2 9 3 99.47027354082255
2 9 4 . 
2 9 5 636.5300670184039
2 9 6 657.2717757515552
2 9 7 0.5
2 9 8 306.49489790015554
2 9 9 . 
3 1 1 . 
3 1 2 139.11285282672324
3 1 3 714.9678682031491
3 1 4 . 
3 1 5 600.7316857947446
3 1 6 152.7856145780615
3 1 7 815.2248563632655
3 1 8 579.4362619897009
3 1 9 834.1915366426098
3 2 1 139.11285282672324
3 2 2 . 
3 2 3 700.9574541436743
3 2 4 . 
3 2 5 617.5434986073668
3 2 6 184.30994479656732
3 2 7 711.9301206776339
3 2 8 400.9433723933688
3 2 9 708.3431678929022
3 3 1 714.9678682031491
3 3 2 700.9574541436743
3 3 3 . 
3 3 4 . 
3 3 5 770.9646762350696
3 3 6 838.6512493911638
3 3 7 73.41640760926674
3 3 8 262.6740717472771
3 3 9 101.9570303793431
3 4 1 . 
3 4 2 . 
3 4 3 . 
3 4 4 . 
3 4 5 . 
3 4 6 . 
3 4 7 . 
3 4 8 . 
3 4 9 . 
3 5 1 600.7316857947446
3 5 2 617.5434986073668
3 5 3 770.9646762350696
3 5 4 . 
3 5 5 . 
3 5 6 523.3748863030186
3 5 7 712.1653896658232
3 5 8 549.1806289611623
3 5 9 652.443318693864
3 6 1 152.7856145780615
3 6 2 184.30994479656732
3 6 3 838.6512493911638
3 6 4 . 
3 6 5 523.3748863030186
3 6 6 . 
3 6 7 828.9686987294896
3 6 8 521.7126313128056
3 6 9 673.703570145344
3 7 1 815.2248563632655
3 7 2 711.9301206776339
3 7 3 73.41640760926674
3 7 4 . 
3 7 5 712.1653896658232
3 7 6 828.9686987294896
3 7 7 . 
3 7 8 240.85238857736132
3 7 9 0.5125
3 8 1 579.4362619897009
3 8 2 400.9433723933688
3 8 3 262.6740717472771
3 8 4 . 
3 8 5 549.1806289611623
3 8 6 521.7126313128056
3 8 7 240.85238857736132
3 8 8 . 
3 8 9 314.1572703476594
3 9 1 834.1915366426098
3 9 2 708.3431678929022
3 9 3 101.9570303793431
3 9 4 . 
3 9 5 652.443318693864
3 9 6 673.703570145344
3 9 7 0.5125
3 9 8 314.1572703476594
3 9 9 . 
4 1 1 . 
4 1 2 139.11285282672324
4 1 3 714.9678682031491
4 1 4 . 
4 1 5 600.7316857947446
4 1 6 152.7856145780615
4 1 7 815.2248563632655
4 1 8 579.4362619897009
4 1 9 834.1915366426098
4 2 1 139.11285282672324
4 2 2 . 
4 2 3 700.9574541436743
4 2 4 . 
4 2 5 617.5434986073668
4 2 6 184.30994479656732
4 2 7 711.9301206776339
4 2 8 400.9433723933688
4 2 9 708.3431678929022
4 3 1 714.9678682031491
4 3 2 700.9574541436743
4 3 3 . 
4 3 4 . 
4 3 5 770.9646762350696
4 3 6 838.6512493911638
4 3 7 73.41640760926674
4 3 8 262.6740717472771
4 3 9 101.9570303793431
4 4 1 . 
4 4 2 . 
4 4 3 . 
4 4 4 . 
4 4 5 . 
4 4 6 . 
4 4 7 . 
4 4 8 . 
4 4 9 . 
4 5 1 600.7316857947446
4 5 2 617.5434986073668
4 5 3 770.9646762350696
4 5 4 . 
4 5 5 . 
4 5 6 523.3748863030186
4 5 7 712.1653896658232
4 5 8 549.1806289611623
4 5 9 652.443318693864
4 6 1 152.7856145780615
4 6 2 184.30994479656732
4 6 3 838.6512493911638
4 6 4 . 
4 6 5 523.3748863030186
4 6 6 . 
4 6 7 828.9686987294896
4 6 8 521.7126313128056
4 6 9 673.703570145344
4 7 1 815.2248563632655
4 7 2 711.9301206776339
4 7 3 73.41640760926674
4 7 4 . 
4 7 5 712.1653896658232
4 7 6 828.9686987294896
4 7 7 . 
4 7 8 240.85238857736132
4 7 9 0.5125
4 8 1 579.4362619897009
4 8 2 400.9433723933688
4 8 3 262.6740717472771
4 8 4 . 
4 8 5 549.1806289611623
4 8 6 521.7126313128056
4 8 7 240.85238857736132
4 8 8 . 
4 8 9 314.1572703476594
4 9 1 834.1915366426098
4 9 2 708.3431678929022
4 9 3 101.9570303793431
4 9 4 . 
4 9 5 652.443318693864
4 9 6 673.703570145344
4 9 7 0.5125
4 9 8 314.1572703476594
4 9 9 . 
5 1 1 . 
5 1 2 142.50584923713114
5 1 3 732.406108891031
5 1 4 430.56289270521313
5 1 5 615.3836781312019
5 1 6 156.5120929824045
5 1 7 835.1083894452966
5 1 8 593.5688537455474
5 1 9 854.5376716826736
5 2 1 142.50584923713114
5 2 2 . 
5 2 3 718.0539774154714
5 2 4 337.6421012379692
5 2 5 632.6055351587661
5 2 6 188.80530930380067
5 2 7 729.2942699624543
5 2 8 410.72247903710957
5 2 9 725.6198305244366
5 3 1 732.406108891031
5 3 2 718.0539774154714
5 3 3 . 
5 3 4 317.7703192452757
5 3 5 789.768692728608
5 3 6 859.1061579128996
5 3 7 75.20705169729764
5 3 8 269.08075642404
5 3 9 104.44378721786367
5 4 1 430.56289270521313
5 4 2 337.6421012379692
5 4 3 317.7703192452757
5 4 4 . 
5 4 5 432.30192914714604
5 4 6 488.4005130244088
5 4 7 264.2729972898159
5 4 8 36.614507819176566
5 4 9 262.7058630863138
5 5 1 615.3836781312019
5 5 2 632.6055351587661
5 5 3 789.768692728608
5 5 4 432.30192914714604
5 5 5 . 
5 5 6 536.1401274323605
5 5 7 729.5352772186483
5 5 8 562.57527844802
5 5 9 668.3565703693241
5 6 1 156.5120929824045
5 6 2 188.80530930380067
5 6 3 859.1061579128996
5 6 4 488.4005130244088
5 6 5 536.1401274323605
5 6 6 . 
5 6 7 849.1874474789894
5 6 8 534.4373296375081
5 6 9 690.135364539133
5 7 1 835.1083894452966
5 7 2 729.2942699624543
5 7 3 75.20705169729764
5 7 4 264.2729972898159
5 7 5 729.5352772186483
5 7 6 849.1874474789894
5 7 7 . 
5 7 8 246.72683707924824
5 7 9 0.525
5 8 1 593.5688537455474
5 8 2 410.72247903710957
5 8 3 269.08075642404
5 8 4 36.614507819176566
5 8 5 562.57527844802
5 8 6 534.4373296375081
5 8 7 246.72683707924824
5 8 8 . 
5 8 9 321.8196427951633
5 9 1 854.5376716826736
5 9 2 725.6198305244366
5 9 3 104.44378721786367
5 9 4 262.7058630863138
5 9 5 668.3565703693241
5 9 6 690.135364539133
5 9 7 0.525
5 9 8 321.8196427951633
5 9 9 . 
6 1 1 . 
6 1 2 142.50584923713114
6 1 3 732.406108891031
6 1 4 430.56289270521313
6 1 5 615.3836781312019
6 1 6 156.5120929824045
6 1 7 835.1083894452966
6 1 8 593.5688537455474
6 1 9 854.5376716826736
6 2 1 142.50584923713114
6 2 2 . 
6 2 3 718.0539774154714
6 2 4 337.6421012379692
6 2 5 632.6055351587661
6 2 6 188.80530930380067
6 2 7 729.2942699624543
6 2 8 410.72247903710957
6 2 9 725.6198305244366
6 3 1 732.406108891031
6 3 2 718.0539774154714
6 3 3 . 
6 3 4 317.7703192452757
6 3 5 789.768692728608
6 3 6 859.1061579128996
6 3 7 75.20705169729764
6 3 8 269.08075642404
6 3 9 104.44378721786367
6 4 1 430.56289270521313
6 4 2 337.6421012379692
6 4 3 317.7703192452757
6 4 4 . 
6 4 5 432.30192914714604
6 4 6 488.4005130244088
6 4 7 264.2729972898159
6 4 8 36.614507819176566
6 4 9 262.7058630863138
6 5 1 615.3836781312019
6 5 2 632.6055351587661
6 5 3 789.768692728608
6 5 4 432.30192914714604
6 5 5 . 
6 5 6 536.1401274323605
6 5 7 729.5352772186483
6 5 8 562.57527844802
6 5 9 668.3565703693241
6 6 1 156.5120929824045
6 6 2 188.80530930380067
6 6 3 859.1061579128996
6 6 4 488.4005130244088
6 6 5 536.1401274323605
6 6 6 . 
6 6 7 849.1874474789894
6 6 8 534.4373296375081
6 6 9 690.135364539133
6 7 1 835.1083894452966
6 7 2 729.2942699624543
6 7 3 75.20705169729764
6 7 4 264.2729972898159
6 7 5 729.5352772186483
6 7 6 849.1874474789894
6 7 7 . 
6 7 8 246.72683707924824
6 7 9 0.525
6 8 1 593.5688537455474
6 8 2 410.72247903710957
6 8 3 269.08075642404
6 8 4 36.614507819176566
6 8 5 562.57527844802
6 8 6 534.4373296375081
6 8 7 246.72683707924824
6 8 8 . 
6 8 9 321.8196427951633
6 9 1 854.5376716826736
6 9 2 725.6198305244366
6 9 3 104.44378721786367
6 9 4 262.7058630863138
6 9 5 668.3565703693241
6 9 6 690.135364539133
6 9 7 0.525
6 9 8 321.8196427951633
6 9 9 . 
7 1 1 . 
7 1 2 142.50584923713114
7 1 3 732.406108891031
7 1 4 430.56289270521313
7 1 5 615.3836781312019
7 1 6 156.5120929824045
7 1 7 835.1083894452966
7 1 8 593.5688537455474
7 1 9 854.5376716826736
7 2 1 142.50584923713114
7 2 2 . 
7 2 3 718.0539774154714
7 2 4 337.6421012379692
7 2 5 632.6055351587661
7 2 6 188.80530930380067
7 2 7 729.2942699624543
7 2 8 410.72247903710957
7 2 9 725.6198305244366
7 3 1 732.406108891031
7 3 2 718.0539774154714
7 3 3 . 
7 3 4 317.7703192452757
7 3 5 789.768692728608
7 3 6 859.1061579128996
7 3 7 75.20705169729764
7 3 8 269.08075642404
7 3 9 104.44378721786367
7 4 1 430.56289270521313
7 4 2 337.6421012379692
7 4 3 317.7703192452757
7 4 4 . 
7 4 5 432.30192914714604
7 4 6 488.4005130244088
7 4 7 264.2729972898159
7 4 8 36.614507819176566
7 4 9 262.7058630863138
7 5 1 615.3836781312019
7 5 2 632.6055351587661
7 5 3 789.768692728608
7 5 4 432.30192914714604
7 5 5 . 
7 5 6 536.1401274323605
7 5 7 729.5352772186483
7 5 8 562.57527844802
7 5 9 668.3565703693241
7 6 1 156.5120929824045
7 6 2 188.80530930380067
7 6 3 859.1061579128996
7 6 4 488.4005130244088
7 6 5 536.1401274323605
7 6 6 . 
7 6 7 849.1874474789894
7 6 8 534.4373296375081
7 6 9 690.135364539133
7 7 1 835.1083894452966
7 7 2 729.2942699624543
7 7 3 75.20705169729764
7 7 4 264.2729972898159
7 7 5 729.5352772186483
7 7 6 849.1874474789894
7 7 7 . 
7 7 8 246.72683707924824
7 7 9 0.525
7 8 1 593.5688537455474
7 8 2 410.72247903710957
7 8 3 269.08075642404
7 8 4 36.614507819176566
7 8 5 562.57527844802
7 8 6 534.4373296375081
7 8 7 246.72683707924824
7 8 8 . 
7 8 9 321.8196427951633
7 9 1 854.5376716826736
7 9 2 725.6198305244366
7 9 3 104.44378721786367
7 9 4 262.7058630863138
7 9 5 668.3565703693241
7 9 6 690.135364539133
7 9 7 0.525
7 9 8 321.8196427951633
7 9 9 . ;

# 29 Travel distance
param D_2 :=
1 1 . 
1 2 267.43971283263073
1 3 1291.059255030535
1 4 818.1197956289775
1 5 1032.159386916575
1 6 224.1182723474371
1 7 1310.6826465624697
1 8 874.6073404677095
1 9 1309.6908032050924
2 1 267.43971283263073
2 2 . 
2 3 1031.721861743755
2 4 575.127811881846
2 5 970.9629241119354
2 6 343.629160578668
2 7 1061.1319427856274
2 8 636.3285314992563
2 9 1060.1330105227362
3 1 1291.059255030535
3 2 1031.721861743755
3 3 . 
3 4 493.27679856242986
3 5 1128.3213194830628
3 6 1254.3926817388565
3 7 143.2515270424717
3 8 456.5347741410286
3 9 142.9405470816451
4 1 818.1197956289775
4 2 575.127811881846
4 3 493.27679856242986
4 4 . 
4 5 791.4322459945639
4 6 762.2866914750643
4 7 493.3771376948875
4 8 65.7419196555744
4 9 492.3921201644072
5 1 1032.159386916575
5 2 970.9629241119354
5 3 1128.3213194830628
5 4 791.4322459945639
5 5 . 
5 6 823.2192903473533
5 7 1031.5910042259966
5 8 769.5719589486093
5 9 1031.0601340368078
6 1 224.1182723474371
6 2 343.629160578668
6 3 1254.3926817388565
6 4 762.2866914750643
6 5 823.2192903473533
6 6 . 
6 7 1249.49989995998
6 8 807.975865976206
6 9 1248.5435515031104
7 1 1310.6826465624697
7 2 1061.1319427856274
7 3 143.2515270424717
7 4 493.3771376948875
7 5 1031.5910042259966
7 6 1249.49989995998
7 7 . 
7 8 441.955880150949
7 9 1.0
8 1 874.6073404677095
8 2 636.3285314992563
8 3 456.5347741410286
8 4 65.7419196555744
8 5 769.5719589486093
8 6 807.975865976206
8 7 441.955880150949
8 8 . 
8 9 440.989795800311
9 1 1309.6908032050924
9 2 1060.1330105227362
9 3 142.9405470816451
9 4 492.3921201644072
9 5 1031.0601340368078
9 6 1248.5435515031104
9 7 1.0
9 8 440.989795800311
9 9 . ;

